(set-option :produce-models true)
(set-logic QF_UF)
(declare-fun p24() Bool)
(declare-fun p28() Bool)
(declare-fun p2() Bool)
(declare-fun p1() Bool)
(declare-fun p14() Bool)
(declare-fun p26() Bool)
(declare-fun p8() Bool)
(declare-fun p3() Bool)
(declare-fun p15() Bool)
(declare-fun p21() Bool)
(declare-fun p27() Bool)
(declare-fun p4() Bool)
(declare-fun p22() Bool)
(declare-fun p18() Bool)
(declare-fun p29() Bool)
(declare-fun p12() Bool)
(declare-fun p7() Bool)
(declare-fun p5() Bool)
(declare-fun p20() Bool)
(declare-fun p6() Bool)
(declare-fun p16() Bool)
(declare-fun p0() Bool)
(declare-fun p23() Bool)
(declare-fun p17() Bool)
(declare-fun p13() Bool)
(declare-fun p25() Bool)
(declare-fun p19() Bool)
(declare-fun p10() Bool)
(declare-fun p11() Bool)
(declare-fun p9() Bool)
(assert
(and (or p24 p28 p2) (or (not p28) p1 p14) (or p26 p8 p3) (or p15 (not p21) (not p27)) (or (not p4) p22 (not p18)) (or p29 p12 (not p7)) (or p2 p26 p2) (or p5 (not p14) (not p4)) (or (not p3) p8 (not p20)) (or (not p6) p16 (not p0)) (or (not p23) p20 p5) (or (not p29) p17 p13) (or (not p27) (not p27) p14) (or p4 p27 (not p17)) (or (not p12) p8 p24) (or p0 (not p15) p20) (or p29 (not p27) p14) (or (not p4) (not p25) (not p13)) (or (not p18) p19 (not p5)) (or (not p24) (not p4) p7) (or (not p10) (not p13) p12) (or p0 p26 (not p5)) (or (not p20) p7 p11) (or p14 (not p0) p3) (or (not p20) p8 (not p11)) (or (not p16) p1 (not p20)) (or (not p24) p14 (not p9)) (or p9 p20 p22) (or p14 p6 (not p29)) (or p18 p2 p15) (or p29 (not p19) p4) (or (not p18) p18 (not p19)) (or (not p29) (not p17) p28) (or p15 p22 (not p10)) (or p19 (not p19) (not p6)) (or p3 p5 (not p27)) (or p1 p1 (not p13)) (or p12 p16 p23) (or (not p17) (not p15) (not p3)) (or p24 p10 (not p12)) (or (not p5) p26 p6) (or p0 p2 (not p13)) (or p16 p2 (not p2)) (or p23 p29 p19) (or p29 p16 p7) (or p7 (not p17) p17) (or p13 (not p9) (not p17)) (or p24 p18 p23) (or p15 (not p27) (not p22)) (or p26 p26 (not p10)) (or (not p3) p14 p23) (or (not p2) p4 (not p6)) (or (not p23) p1 (not p16)) (or (not p29) p21 (not p0)) (or (not p26) p27 p22) (or p14 p7 p29) (or (not p13) p13 (not p8)) (or (not p20) p10 p17) (or p16 p28 p17) (or p15 p13 (not p6)) (or (not p22) p4 p14) (or (not p21) p29 (not p10)) (or p4 (not p0) p6) (or (not p8) (not p13) p6) (or p18 p5 p27) (or p14 (not p12) (not p20)) (or p3 p23 p19) (or (not p11) p24 (not p5)) (or p25 p21 p19) (or p0 (not p25) (not p28)) (or p12 p26 (not p8)) (or p26 p8 (not p3)) (or p5 (not p21) p9) (or (not p20) (not p22) p14) (or (not p29) p28 (not p16)) (or (not p27) p23 (not p1)) (or (not p28) p3 (not p4)) (or (not p23) (not p12) (not p9)) (or (not p28) p25 (not p28)) (or p2 (not p8) (not p21)) (or p17 p8 p10) (or (not p29) (not p29) (not p14)) (or p19 (not p25) p24) (or (not p3) p22 p19) (or (not p6) (not p8) (not p9)) (or (not p15) p11 (not p21)) (or p17 p12 (not p29)) (or p23 (not p16) (not p18)) (or p23 p19 (not p19)) (or p11 (not p3) p9) (or (not p1) p26 (not p5)) (or p18 (not p11) p13) (or (not p6) (not p6) p23) (or p0 (not p28) (not p11)) (or (not p16) (not p29) (not p10)) (or p28 p0 p25) (or p14 p27 p15) (or p16 p11 p24) (or (not p0) (not p21) p4) (or p25 (not p24) p24) (or (not p13) p25 (not p13)) (or (not p29) p18 (not p17)) (or (not p9) (not p0) (not p5)) (or p21 p1 p15) (or p4 (not p17) p5) (or (not p26) (not p1) (not p29)) (or p18 p12 (not p1)) (or (not p24) p11 (not p23)) (or p3 (not p18) (not p21)) (or (not p2) (not p3) p20) (or p22 (not p24) p22) (or p23 (not p12) (not p19)) (or (not p23) p13 p7) (or (not p19) p17 p29) (or (not p4) (not p3) p19) (or (not p4) p12 p16) (or (not p24) (not p21) p19) (or (not p2) p19 (not p11)) (or p20 (not p26) (not p28)) (or (not p20) (not p14) p8) (or p22 (not p29) p18) (or (not p9) p11 (not p8)) (or p23 p23 p9) (or (not p13) p15 (not p6)) (or (not p8) (not p11) (not p9)) (or p15 (not p24) (not p25)) (or (not p19) p12 (not p9)) (or p20 (not p14) (not p27)))
)
(check-sat)
(get-model)
